(set-logic ALL)
(set-option :produce-models true)
(define-fun-rec str.toLower ((x String)) String
  (ite (= x "")
      ""
      (let ((Head (str.at x 0)))
        (str.++ 
          (ite (and (<= 65 (str.to_code Head)) 
                     (<= (str.to_code Head) 90))
               (str.from_code (+ (str.to_code Head) 32))
               Head)
          (str.toLower (str.substr x 1 (- (str.len x) 1)))))))
(declare-fun sym807 () String)
(declare-fun sym205 () String)
(declare-fun sym547 () String)
(declare-fun sym1659 () String)
(declare-fun sym3628 () String)
(declare-fun sym2757 () String)
(declare-fun sym4869 () String)
(declare-fun sym1446 () String)
(declare-fun sym3415 () String)
(declare-fun sym2986 () String)
(declare-fun sym2544 () String)
(declare-fun sym3843 () String)
(declare-fun sym2335 () String)
(declare-fun sym1882 () String)
(declare-fun sym1233 () String)
(declare-fun sym4269 () String)
(declare-fun sym3189 () String)
(declare-fun sym1020 () String)
(declare-fun sym4684 () String)
(declare-fun sym4056 () String)
(declare-fun sym161 () String)
(declare-fun sym2095 () String)
(declare-fun sym4492 () String)

(assert (not (= (str.toLower (str.substr sym3628  0 1))"r" )))
(assert (not (= (str.toLower (str.substr sym2095  0 1))"q" )))
(assert (not (= "" sym2544 )))
(assert (not (= "" sym4269 )))
(assert (not (= (str.toLower (str.substr sym3843  0 1))"p" )))
(assert (not (= (str.toLower (str.substr sym4492  0 1))"k" )))
(assert (not (= (str.toLower (str.substr sym1020  0 1))"p" )))
(assert (not (= (str.toLower (str.substr sym1446  0 1))"p" )))
(assert (not (= (str.toLower (str.substr sym1882  0 1))"q" )))
(assert (= "y" "y" ))
(assert (not (= (str.toLower (str.substr sym2095  0 1))"p" )))
(assert (= (str.toLower (str.substr sym3415  0 1))"k" ))
(assert (not (= "" sym3189 )))
(assert (= (str.toLower (str.substr sym547  0 1))"k" ))
(assert (not (= (str.toLower (str.substr sym1659  0 1))"g" )))
(assert (not (= (str.toLower (str.substr sym807  0 1))"p" )))
(assert (= (str.toLower (str.substr sym2757  0 1))"k" ))
(assert (not (= (str.toLower (str.substr sym2757  0 1))"q" )))
(assert (not (= (str.toLower (str.substr sym2544  0 1))"p" )))
(assert (= (str.toLower (str.substr sym1020  0 1))"k" ))
(assert (not (= (str.toLower (str.substr sym4269  0 1))"p" )))
(assert (not (= "" sym547 )))
(assert (= (str.toLower (str.substr sym1659  0 1))"h" ))
(assert (not (= "" sym3628 )))
(assert (not (= (str.toLower (str.substr sym3628  0 1))"g" )))
(assert (not (= "" sym205 )))
(assert (not (= "" sym161 )))
(assert (not (= (str.toLower (str.substr sym1233  0 1))"q" )))
(assert (not (= (str.toLower (str.substr sym2757  0 1))"p" )))
(assert (not (= "" sym2986 )))
(assert (not (= "" sym4492 )))
(assert (not (= (str.toLower (str.substr sym3415  0 1))"q" )))
(assert (not (= (str.toLower (str.substr sym4269  0 1))"q" )))
(assert (not (= (str.toLower (str.substr sym547  0 1))"p" )))
(assert (not (= (str.toLower (str.substr sym2335  0 1))"k" )))
(assert (not (= "" sym3415 )))
(assert (not (= "y" "n" )))
(assert (= (str.toLower (str.substr sym2335  0 1))"r" ))
(assert (not (= (str.toLower (str.substr sym4869  0 1))"q" )))
(assert (not (= (str.toLower (str.substr sym4684  0 1))"g" )))
(assert (not (= (str.toLower (str.substr sym1659  0 1))"r" )))
(assert (not (= (str.toLower (str.substr sym2335  0 1))"q" )))
(assert (not (= (str.toLower (str.substr sym3628  0 1))"k" )))
(assert (not (= "" sym1233 )))
(assert (not (= "" sym1020 )))
(assert (not (= "" sym2335 )))
(assert (= (str.toLower (str.substr sym4269  0 1))"k" ))
(assert (not (= "" sym4684 )))
(assert (not (= (str.toLower (str.substr sym1446  0 1))"q" )))
(assert (not (= (str.toLower (str.substr sym4492  0 1))"g" )))
(assert (not (= "" sym807 )))
(assert (not (= (str.toLower (str.substr sym547  0 1))"q" )))
(assert (not (= (str.toLower (str.substr sym1233  0 1))"p" )))
(assert (not (= (str.toLower (str.substr sym4869  0 1))"g" )))
(assert (= (str.toLower (str.substr sym4492  0 1))"r" ))
(assert (not (= (str.toLower (str.substr sym4056  0 1))"q" )))
(assert (not (= "" sym1446 )))
(assert (= (str.toLower (str.substr sym3628  0 1))"h" ))
(assert (= "" "" ))
(assert (not (= "" sym1882 )))
(assert (= (str.toLower (str.substr sym3189  0 1))"r" ))
(assert (not (= "" sym4056 )))
(assert (= (str.toLower (str.substr sym2095  0 1))"k" ))
(assert (not (= (str.toLower (str.substr sym1659  0 1))"k" )))
(assert (not (= (str.toLower (str.substr sym2544  0 1))"q" )))
(assert (= (str.toLower (str.substr sym3843  0 1))"k" ))
(assert (not (= (str.toLower (str.substr sym4684  0 1))"q" )))
(assert (not (= (str.toLower (str.substr sym3189  0 1))"q" )))
(assert (not (= (str.toLower (str.substr sym3843  0 1))"q" )))
(assert (= (str.toLower (str.substr sym1233  0 1))"k" ))
(assert (not (= (str.toLower (str.substr sym1882  0 1))"p" )))
(assert (not (= "" sym2757 )))
(assert (not (= (str.toLower (str.substr sym3189  0 1))"g" )))
(assert (not (= (str.toLower (str.substr sym3189  0 1))"k" )))
(assert (not (= (str.toLower (str.substr sym4684  0 1))"k" )))
(assert (= (str.toLower (str.substr sym1446  0 1))"k" ))
(assert (not (= (str.toLower (str.substr sym1659  0 1))"l" )))
(assert (not (= (str.toLower (str.substr sym4869  0 1))"k" )))
(assert (not (= "" "y" )))
(assert (= (str.toLower (str.substr sym205  0 1))"y" ))
(assert (not (= (str.toLower (str.substr sym1659  0 1))"p" )))
(assert (not (= (str.toLower (str.substr sym4869  0 1))"p" )))
(assert (= (str.toLower (str.substr sym2986  0 1))"k" ))
(assert (not (= (str.toLower (str.substr sym4492  0 1))"p" )))
(assert (not (= (str.toLower (str.substr sym4492  0 1))"q" )))
(assert (not (= "" (str.toLower (str.substr sym205  0 1)))))
(assert (not (= (str.toLower (str.substr sym3189  0 1))"p" )))
(assert (not (= "" sym4869 )))
(assert (= (str.toLower (str.substr sym4056  0 1))"k" ))
(assert (not (= (str.toLower (str.substr sym4056  0 1))"p" )))
(assert (not (= (str.toLower (str.substr sym1020  0 1))"q" )))
(assert (not (= (str.toLower (str.substr sym4684  0 1))"p" )))
(assert (= (str.toLower (str.substr sym1882  0 1))"k" ))
(assert (not (= "" sym2095 )))
(assert (= (str.toLower (str.substr sym807  0 1))"k" ))
(assert (= (str.toLower (str.substr sym4869  0 1))"r" ))
(assert (not (= (str.toLower (str.substr sym2986  0 1))"p" )))
(assert (not (= (str.toLower (str.substr sym1659  0 1))"q" )))
(assert (not (= "" sym3843 )))
(assert (not (= (str.toLower (str.substr sym3415  0 1))"p" )))
(assert (= (str.toLower (str.substr sym2544  0 1))"k" ))
(assert (not (= (str.toLower (str.substr sym3628  0 1))"p" )))
(assert (not (= (str.toLower (str.substr sym2335  0 1))"p" )))
(assert (not (= (str.toLower (str.substr sym807  0 1))"q" )))
(assert (not (= "" "y" )))
(assert (not (= "" "q" )))
(assert (not (= (str.toLower (str.substr sym2335  0 1))"g" )))
(assert (not (= (str.toLower (str.substr sym3628  0 1))"l" )))
(assert (= (str.toLower (str.substr sym4684  0 1))"r" ))
(assert (not (= "" sym1659 )))
(assert (not (= (str.toLower (str.substr sym3628  0 1))"q" )))
(assert (not (= (str.toLower (str.substr sym2986  0 1))"q" )))
(check-sat)
(get-model)
(exit)
